; benchmark generated from python API
(set-info :status unknown)
(declare-fun syscall_stub_newfstatat_83_64 () (_ BitVec 64))
(declare-fun mem_c0000f45_79_992 () (_ BitVec 992))
(declare-fun mem_c0001010_98_32 () (_ BitVec 32))
(declare-fun mem_ffffffc07f800000_120_8 () (_ BitVec 8))
(declare-fun mem_ffffffc07f800001_336_128 () (_ BitVec 128))
(assert
 (let ((?x47 ((_ extract 31 0) syscall_stub_newfstatat_83_64)))
 (let (($x52 (bvule ?x47 (_ bv4294963200 32))))
 (not $x52))))
(assert
 (let ((?x3699 ((_ extract 891 891) mem_c0000f45_79_992)))
 (let (($x4297 (= (_ bv0 1) ?x3699)))
 (not $x4297))))
(assert
 (let ((?x2189 ((_ extract 900 900) mem_c0000f45_79_992)))
 (= (_ bv0 1) ?x2189)))
(assert
 (let ((?x644 ((_ extract 647 640) mem_c0000f45_79_992)))
 (let ((?x3676 ((_ extract 639 632) mem_c0000f45_79_992)))
 (let ((?x4549 ((_ extract 631 624) mem_c0000f45_79_992)))
 (let ((?x636 ((_ extract 623 616) mem_c0000f45_79_992)))
 (let ((?x672 ((_ extract 615 608) mem_c0000f45_79_992)))
 (let ((?x784 ((_ extract 607 600) mem_c0000f45_79_992)))
 (let ((?x18745 (concat (concat ((_ extract 591 584) mem_c0000f45_79_992) ((_ extract 599 592) mem_c0000f45_79_992)) ?x784)))
 (let ((?x23636 (concat (concat (concat (concat (concat ?x18745 ?x672) ?x636) ?x4549) ?x3676) ?x644)))
 (bvule (_ bv18446743800970739712 64) ?x23636))))))))))
(assert
 (let ((?x8705 ((_ extract 888 888) mem_c0000f45_79_992)))
 (= (_ bv0 1) ?x8705)))
(assert
 (let ((?x2427 ((_ extract 775 768) mem_c0000f45_79_992)))
 (let ((?x2419 ((_ extract 767 760) mem_c0000f45_79_992)))
 (let ((?x2429 ((_ extract 759 752) mem_c0000f45_79_992)))
 (let ((?x2417 ((_ extract 751 744) mem_c0000f45_79_992)))
 (let ((?x2410 ((_ extract 743 736) mem_c0000f45_79_992)))
 (let ((?x2411 ((_ extract 735 728) mem_c0000f45_79_992)))
 (let ((?x4124 (concat (concat ((_ extract 719 712) mem_c0000f45_79_992) ((_ extract 727 720) mem_c0000f45_79_992)) ?x2411)))
 (let ((?x3823 (concat (concat (concat (concat (concat ?x4124 ?x2410) ?x2417) ?x2429) ?x2419) ?x2427)))
 (let (($x41745 (bvule ?x3823 (_ bv18446743800970739712 64))))
 (not $x41745)))))))))))
(assert
 (let ((?x3977 ((_ extract 583 576) mem_c0000f45_79_992)))
 (= (_ bv0 8) ?x3977)))
(assert
 (let ((?x935 ((_ extract 575 568) mem_c0000f45_79_992)))
 (= (_ bv0 8) ?x935)))
(assert
 (let ((?x4611 ((_ extract 567 560) mem_c0000f45_79_992)))
 (= (_ bv128 8) ?x4611)))
(assert
 (let ((?x3400 ((_ extract 559 552) mem_c0000f45_79_992)))
 (= (_ bv127 8) ?x3400)))
(assert
 (let ((?x3784 ((_ extract 551 544) mem_c0000f45_79_992)))
 (= (_ bv192 8) ?x3784)))
(assert
 (let ((?x3913 ((_ extract 543 536) mem_c0000f45_79_992)))
 (= (_ bv255 8) ?x3913)))
(assert
 (let ((?x4737 ((_ extract 535 528) mem_c0000f45_79_992)))
 (= (_ bv255 8) ?x4737)))
(assert
 (let ((?x4639 ((_ extract 527 520) mem_c0000f45_79_992)))
 (= (_ bv255 8) ?x4639)))
(assert
 (let ((?x2357 ((_ extract 815 808) mem_c0000f45_79_992)))
 (let ((?x2417 ((_ extract 751 744) mem_c0000f45_79_992)))
 (let (($x1690 (= ?x2417 ?x2357)))
 (let (($x3670 (not $x1690)))
 (let ((?x2362 ((_ extract 807 800) mem_c0000f45_79_992)))
 (let ((?x2410 ((_ extract 743 736) mem_c0000f45_79_992)))
 (let (($x1703 (= ?x2410 ?x2362)))
 (let (($x3664 (not $x1703)))
 (let ((?x2345 ((_ extract 783 776) mem_c0000f45_79_992)))
 (let ((?x2400 ((_ extract 719 712) mem_c0000f45_79_992)))
 (let (($x1701 (= ?x2400 ?x2345)))
 (let (($x3671 (not $x1701)))
 (let ((?x2363 ((_ extract 799 792) mem_c0000f45_79_992)))
 (let ((?x2411 ((_ extract 735 728) mem_c0000f45_79_992)))
 (let (($x1704 (= ?x2411 ?x2363)))
 (let (($x3672 (not $x1704)))
 (let ((?x2346 ((_ extract 791 784) mem_c0000f45_79_992)))
 (let ((?x2401 ((_ extract 727 720) mem_c0000f45_79_992)))
 (let (($x1693 (= ?x2401 ?x2346)))
 (let (($x4136 (not $x1693)))
 (let ((?x2364 ((_ extract 831 824) mem_c0000f45_79_992)))
 (let ((?x2419 ((_ extract 767 760) mem_c0000f45_79_992)))
 (let (($x1155 (= ?x2419 ?x2364)))
 (let (($x4137 (not $x1155)))
 (let ((?x2374 ((_ extract 839 832) mem_c0000f45_79_992)))
 (let ((?x2427 ((_ extract 775 768) mem_c0000f45_79_992)))
 (let (($x1152 (= ?x2427 ?x2374)))
 (let (($x4139 (not $x1152)))
 (let ((?x2349 ((_ extract 823 816) mem_c0000f45_79_992)))
 (let ((?x2429 ((_ extract 759 752) mem_c0000f45_79_992)))
 (let (($x1714 (= ?x2429 ?x2349)))
 (let (($x4539 (not $x1714)))
 (let (($x6038 (or $x4539 $x4139 $x4137 $x4136 $x3672 $x3671 $x3664 $x3670)))
 (let (($x9215 (not $x6038)))
 (let ((?x4533 (concat (concat (concat (concat (concat ?x2345 ?x2346) ?x2363) ?x2362) ?x2357) ?x2349)))
 (let ((?x4215 (concat ?x4533 ?x2364)))
 (let ((?x3812 (concat ?x4215 ?x2374)))
 (let ((?x3646 (bvmul (_ bv18446744073709551615 64) ?x3812)))
 (let ((?x3809 (concat (concat (concat (concat (concat ?x2400 ?x2401) ?x2411) ?x2410) ?x2417) ?x2429)))
 (let ((?x3823 (concat (concat ?x3809 ?x2419) ?x2427)))
 (let ((?x3827 (bvadd ?x3823 ?x3646)))
 (let ((?x2482 ((_ extract 63 63) ?x3827)))
 (let (($x2285 (= (_ bv1 1) ?x2482)))
 (or $x2285 $x9215)))))))))))))))))))))))))))))))))))))))))))))
(assert
 (let ((?x2400 ((_ extract 719 712) mem_c0000f45_79_992)))
 (let (($x17560 (= (_ bv255 8) ?x2400)))
 (let (($x17562 (not $x17560)))
 (let ((?x2410 ((_ extract 743 736) mem_c0000f45_79_992)))
 (let (($x10065 (= (_ bv192 8) ?x2410)))
 (let (($x10063 (not $x10065)))
 (let ((?x2411 ((_ extract 735 728) mem_c0000f45_79_992)))
 (let (($x17604 (= (_ bv255 8) ?x2411)))
 (let (($x17721 (not $x17604)))
 (let ((?x2401 ((_ extract 727 720) mem_c0000f45_79_992)))
 (let (($x17731 (= (_ bv255 8) ?x2401)))
 (let (($x17664 (not $x17731)))
 (let ((?x2419 ((_ extract 767 760) mem_c0000f45_79_992)))
 (let (($x10069 (= (_ bv0 8) ?x2419)))
 (let (($x10067 (not $x10069)))
 (let ((?x2427 ((_ extract 775 768) mem_c0000f45_79_992)))
 (let (($x99771 (= (_ bv1 8) ?x2427)))
 (let (($x99778 (not $x99771)))
 (let ((?x2429 ((_ extract 759 752) mem_c0000f45_79_992)))
 (let (($x313146 (= (_ bv128 8) ?x2429)))
 (let (($x314025 (not $x313146)))
 (let ((?x2417 ((_ extract 751 744) mem_c0000f45_79_992)))
 (let (($x306718 (= (_ bv127 8) ?x2417)))
 (let (($x314244 (not $x306718)))
 (or $x314244 $x314025 $x99778 $x10067 $x17664 $x17721 $x10063 $x17562))))))))))))))))))))))))))
(assert
 (= (_ bv4294967295 32) mem_c0001010_98_32))
(assert
 (let (($x41769 (= (_ bv10 8) mem_ffffffc07f800000_120_8)))
 (not $x41769)))
(assert
 (let ((?x3977 ((_ extract 583 576) mem_c0000f45_79_992)))
 (let ((?x935 ((_ extract 575 568) mem_c0000f45_79_992)))
 (let ((?x4611 ((_ extract 567 560) mem_c0000f45_79_992)))
 (let ((?x3400 ((_ extract 559 552) mem_c0000f45_79_992)))
 (let ((?x3784 ((_ extract 551 544) mem_c0000f45_79_992)))
 (let ((?x3913 ((_ extract 543 536) mem_c0000f45_79_992)))
 (let ((?x12701 (concat (concat ((_ extract 527 520) mem_c0000f45_79_992) ((_ extract 535 528) mem_c0000f45_79_992)) ?x3913)))
 (let ((?x13066 (concat (concat (concat (concat (concat ?x12701 ?x3784) ?x3400) ?x4611) ?x935) ?x3977)))
 (let ((?x57164 (bvadd (_ bv1 64) ?x13066)))
 (= (_ bv18446743800970739713 64) ?x57164)))))))))))
(assert
 (let ((?x593407 ((_ extract 7 0) mem_ffffffc07f800001_336_128)))
 (let (($x602124 (= (_ bv10 8) ?x593407)))
 (let ((?x604200 (ite $x602124 (_ bv1 1) (_ bv0 1))))
 (let ((?x601573 ((_ extract 15 8) mem_ffffffc07f800001_336_128)))
 (let (($x605381 (= (_ bv10 8) ?x601573)))
 (let ((?x596811 (ite $x605381 (_ bv1 1) (_ bv0 1))))
 (let ((?x603697 ((_ extract 23 16) mem_ffffffc07f800001_336_128)))
 (let (($x604028 (= (_ bv10 8) ?x603697)))
 (let ((?x605253 (ite $x604028 (_ bv1 1) (_ bv0 1))))
 (let ((?x603432 ((_ extract 31 24) mem_ffffffc07f800001_336_128)))
 (let (($x603640 (= (_ bv10 8) ?x603432)))
 (let ((?x590656 (ite $x603640 (_ bv1 1) (_ bv0 1))))
 (let ((?x604579 ((_ extract 39 32) mem_ffffffc07f800001_336_128)))
 (let (($x604572 (= (_ bv10 8) ?x604579)))
 (let ((?x593657 (ite $x604572 (_ bv1 1) (_ bv0 1))))
 (let ((?x604580 ((_ extract 47 40) mem_ffffffc07f800001_336_128)))
 (let (($x602742 (= (_ bv10 8) ?x604580)))
 (let ((?x597467 (ite $x602742 (_ bv1 1) (_ bv0 1))))
 (let ((?x604691 ((_ extract 55 48) mem_ffffffc07f800001_336_128)))
 (let (($x605216 (= (_ bv10 8) ?x604691)))
 (let ((?x591610 (ite $x605216 (_ bv1 1) (_ bv0 1))))
 (let ((?x606511 ((_ extract 63 56) mem_ffffffc07f800001_336_128)))
 (let (($x601496 (= (_ bv10 8) ?x606511)))
 (let ((?x59055 (ite $x601496 (_ bv1 1) (_ bv0 1))))
 (let ((?x605508 ((_ extract 71 64) mem_ffffffc07f800001_336_128)))
 (let (($x601650 (= (_ bv10 8) ?x605508)))
 (let ((?x314608 (ite $x601650 (_ bv1 1) (_ bv0 1))))
 (let ((?x606835 ((_ extract 79 72) mem_ffffffc07f800001_336_128)))
 (let (($x590621 (= (_ bv10 8) ?x606835)))
 (let ((?x314477 (ite $x590621 (_ bv1 1) (_ bv0 1))))
 (let ((?x605365 ((_ extract 87 80) mem_ffffffc07f800001_336_128)))
 (let (($x600660 (= (_ bv10 8) ?x605365)))
 (let ((?x315066 (ite $x600660 (_ bv1 1) (_ bv0 1))))
 (let ((?x594102 ((_ extract 95 88) mem_ffffffc07f800001_336_128)))
 (let (($x595336 (= (_ bv10 8) ?x594102)))
 (let ((?x314751 (ite $x595336 (_ bv1 1) (_ bv0 1))))
 (let ((?x604952 ((_ extract 103 96) mem_ffffffc07f800001_336_128)))
 (let (($x604792 (= (_ bv10 8) ?x604952)))
 (let ((?x313986 (ite $x604792 (_ bv1 1) (_ bv0 1))))
 (let ((?x605355 ((_ extract 111 104) mem_ffffffc07f800001_336_128)))
 (let (($x602911 (= (_ bv10 8) ?x605355)))
 (let ((?x312464 (ite $x602911 (_ bv1 1) (_ bv0 1))))
 (let ((?x603333 ((_ extract 119 112) mem_ffffffc07f800001_336_128)))
 (let (($x604883 (= (_ bv10 8) ?x603333)))
 (let ((?x315511 (ite $x604883 (_ bv1 1) (_ bv0 1))))
 (let ((?x312680 ((_ extract 127 120) mem_ffffffc07f800001_336_128)))
 (let (($x605421 (= (_ bv10 8) ?x312680)))
 (let ((?x315352 (ite $x605421 (_ bv1 1) (_ bv0 1))))
 (let ((?x597152 (concat (concat (concat (concat (concat ?x315352 ?x315511) ?x312464) ?x313986) ?x314751) ?x315066)))
 (let ((?x604656 (concat (concat (concat (concat (concat ?x597152 ?x314477) ?x314608) ?x59055) ?x591610) ?x597467)))
 (let ((?x602956 (concat (concat (concat (concat (concat ?x604656 ?x593657) ?x590656) ?x605253) ?x596811) ?x604200)))
 (= (_ bv0 16) ?x602956)))))))))))))))))))))))))))))))))))))))))))))))))))))
(assert
 (let ((?x3977 ((_ extract 583 576) mem_c0000f45_79_992)))
 (let ((?x935 ((_ extract 575 568) mem_c0000f45_79_992)))
 (let ((?x4611 ((_ extract 567 560) mem_c0000f45_79_992)))
 (let ((?x3400 ((_ extract 559 552) mem_c0000f45_79_992)))
 (let ((?x3784 ((_ extract 551 544) mem_c0000f45_79_992)))
 (let ((?x3913 ((_ extract 543 536) mem_c0000f45_79_992)))
 (let ((?x12701 (concat (concat ((_ extract 527 520) mem_c0000f45_79_992) ((_ extract 535 528) mem_c0000f45_79_992)) ?x3913)))
 (let ((?x13066 (concat (concat (concat (concat (concat ?x12701 ?x3784) ?x3400) ?x4611) ?x935) ?x3977)))
 (let ((?x84029 (bvmul (_ bv18446744073709551615 64) ?x13066)))
 (let ((?x2427 ((_ extract 775 768) mem_c0000f45_79_992)))
 (let ((?x2419 ((_ extract 767 760) mem_c0000f45_79_992)))
 (let ((?x2429 ((_ extract 759 752) mem_c0000f45_79_992)))
 (let ((?x2417 ((_ extract 751 744) mem_c0000f45_79_992)))
 (let ((?x2410 ((_ extract 743 736) mem_c0000f45_79_992)))
 (let ((?x2411 ((_ extract 735 728) mem_c0000f45_79_992)))
 (let ((?x4124 (concat (concat ((_ extract 719 712) mem_c0000f45_79_992) ((_ extract 727 720) mem_c0000f45_79_992)) ?x2411)))
 (let ((?x3823 (concat (concat (concat (concat (concat ?x4124 ?x2410) ?x2417) ?x2429) ?x2419) ?x2427)))
 (let ((?x28836 (bvadd (_ bv18446744073709551615 64) ?x3823)))
 (let ((?x31280 (bvadd ?x28836 ?x84029)))
 (let ((?x29628 ((_ extract 568 568) mem_c0000f45_79_992)))
 (let ((?x30499 (concat ?x29628 ?x3977)))
 (let ((?x28310 (bvmul (_ bv511 9) ?x30499)))
 (let ((?x4203 ((_ extract 760 760) mem_c0000f45_79_992)))
 (let ((?x3607 (concat ?x4203 ?x2427)))
 (let ((?x49860 (bvadd (_ bv511 9) ?x3607)))
 (let ((?x196520 (bvadd ?x49860 ?x28310)))
 (let (($x196710 (bvule ?x196520 (_ bv398 9))))
 (let ((?x195923 ((_ extract 63 9) ?x31280)))
 (let (($x196315 (= (_ bv0 55) ?x195923)))
 (let (($x196093 (and $x196315 $x196710)))
 (let ((?x194439 (ite $x196093 ?x31280 (_ bv398 64))))
 (bvule ?x194439 (_ bv16 64))))))))))))))))))))))))))))))))))
(maximize syscall_stub_newfstatat_83_64)
(maximize mem_c0001010_98_32)
(minimize mem_c0000f45_79_992)
(maximize mem_ffffffc07f800000_120_8)
(minimize mem_c0001010_98_32)
(maximize mem_c0000f45_79_992)
(maximize mem_ffffffc07f800001_336_128)
(minimize mem_ffffffc07f800000_120_8)
(minimize syscall_stub_newfstatat_83_64)
(minimize mem_ffffffc07f800001_336_128)
(check-sat)
(get-objectives)
